p edge 202 1227
e 1 2
e 1 8
e 1 56
e 1 60
e 1 159
e 2 3
e 2 5
e 2 7
e 2 61
e 2 63
e 2 65
e 2 67
e 2 171
e 2 173
e 2 180
e 2 182
e 2 184
e 2 190
e 2 193
e 2 196
e 3 4
e 3 56
e 3 60
e 3 159
e 4 5
e 4 47
e 4 59
e 4 63
e 4 65
e 4 99
e 4 156
e 4 171
e 4 182
e 4 193
e 4 195
e 4 196
e 4 198
e 4 199
e 4 201
e 5 6
e 5 46
e 5 60
e 5 159
e 6 7
e 6 13
e 6 15
e 6 41
e 6 43
e 6 65
e 6 67
e 6 73
e 6 75
e 6 165
e 6 167
e 6 171
e 6 180
e 6 182
e 6 184
e 7 8
e 7 12
e 7 60
e 7 159
e 8 9
e 8 11
e 8 61
e 8 67
e 8 69
e 8 71
e 8 173
e 8 175
e 8 180
e 8 184
e 8 186
e 8 188
e 8 190
e 8 192
e 9 10
e 9 56
e 9 60
e 9 159
e 10 11
e 10 29
e 10 55
e 10 69
e 10 71
e 10 89
e 10 93
e 10 160
e 10 162
e 10 168
e 10 170
e 10 175
e 10 186
e 10 188
e 10 192
e 11 12
e 11 28
e 11 60
e 11 159
e 12 13
e 12 25
e 12 39
e 12 41
e 12 67
e 12 71
e 12 73
e 12 85
e 12 165
e 12 178
e 12 180
e 12 184
e 12 186
e 12 188
e 13 14
e 13 24
e 13 60
e 13 159
e 14 15
e 14 23
e 14 37
e 14 41
e 14 43
e 14 73
e 14 75
e 14 83
e 14 165
e 14 167
e 14 176
e 15 16
e 15 46
e 15 60
e 15 159
e 16 17
e 16 23
e 16 37
e 16 43
e 16 45
e 16 75
e 16 77
e 16 83
e 16 167
e 16 169
e 16 176
e 17 18
e 17 46
e 17 48
e 17 60
e 17 159
e 18 19
e 18 23
e 18 35
e 18 37
e 18 45
e 18 77
e 18 79
e 18 83
e 18 169
e 18 174
e 18 176
e 19 20
e 19 48
e 19 50
e 19 60
e 19 159
e 20 21
e 20 23
e 20 33
e 20 35
e 20 37
e 20 79
e 20 81
e 20 83
e 20 172
e 20 174
e 20 176
e 21 22
e 21 30
e 21 50
e 21 60
e 21 159
e 22 23
e 22 27
e 22 31
e 22 33
e 22 37
e 22 81
e 22 83
e 22 87
e 22 172
e 22 176
e 22 197
e 23 24
e 23 26
e 23 60
e 23 159
e 24 25
e 24 37
e 24 39
e 24 41
e 24 73
e 24 83
e 24 85
e 24 165
e 24 176
e 24 178
e 25 26
e 25 28
e 25 60
e 25 159
e 26 27
e 26 31
e 26 37
e 26 39
e 26 83
e 26 85
e 26 87
e 26 176
e 26 178
e 26 197
e 27 28
e 27 30
e 27 60
e 27 159
e 28 29
e 28 31
e 28 39
e 28 71
e 28 85
e 28 87
e 28 89
e 28 162
e 28 170
e 28 178
e 28 186
e 28 188
e 28 197
e 29 30
e 29 54
e 29 60
e 29 159
e 30 31
e 30 33
e 30 51
e 30 81
e 30 87
e 30 89
e 30 91
e 30 148
e 30 162
e 30 164
e 30 170
e 30 172
e 30 197
e 31 32
e 31 38
e 31 159
e 31 163
e 31 187
e 32 33
e 32 37
e 32 62
e 32 64
e 32 94
e 32 118
e 32 122
e 32 124
e 32 172
e 32 176
e 32 197
e 33 34
e 33 50
e 33 149
e 33 159
e 33 163
e 34 35
e 34 37
e 34 62
e 34 68
e 34 94
e 34 118
e 34 120
e 34 122
e 34 172
e 34 174
e 34 176
e 35 36
e 35 48
e 35 50
e 35 149
e 35 151
e 35 159
e 36 37
e 36 45
e 36 68
e 36 70
e 36 94
e 36 108
e 36 118
e 36 120
e 36 169
e 36 174
e 36 176
e 37 38
e 37 40
e 37 42
e 37 44
e 37 159
e 38 39
e 38 64
e 38 94
e 38 98
e 38 116
e 38 118
e 38 124
e 38 176
e 38 178
e 38 197
e 39 40
e 39 159
e 39 185
e 39 187
e 40 41
e 40 94
e 40 96
e 40 98
e 40 104
e 40 116
e 40 118
e 40 165
e 40 176
e 40 178
e 41 42
e 41 159
e 41 181
e 41 185
e 42 43
e 42 92
e 42 94
e 42 96
e 42 104
e 42 106
e 42 118
e 42 165
e 42 167
e 42 176
e 43 44
e 43 46
e 43 155
e 43 159
e 43 181
e 44 45
e 44 70
e 44 92
e 44 94
e 44 106
e 44 108
e 44 118
e 44 167
e 44 169
e 44 176
e 45 46
e 45 48
e 45 151
e 45 155
e 45 159
e 46 47
e 46 65
e 46 75
e 46 77
e 46 156
e 46 167
e 46 169
e 46 171
e 46 182
e 46 199
e 46 201
e 47 48
e 47 58
e 47 60
e 47 159
e 48 49
e 48 77
e 48 79
e 48 101
e 48 150
e 48 156
e 48 169
e 48 174
e 48 179
e 48 199
e 48 201
e 49 50
e 49 52
e 49 58
e 49 60
e 49 159
e 50 51
e 50 79
e 50 81
e 50 91
e 50 101
e 50 148
e 50 150
e 50 164
e 50 172
e 50 174
e 50 179
e 51 52
e 51 54
e 51 60
e 51 159
e 52 53
e 52 57
e 52 91
e 52 95
e 52 97
e 52 101
e 52 146
e 52 148
e 52 150
e 52 158
e 52 164
e 52 166
e 52 177
e 52 179
e 53 54
e 53 56
e 53 60
e 53 159
e 54 55
e 54 89
e 54 91
e 54 93
e 54 95
e 54 146
e 54 148
e 54 160
e 54 162
e 54 164
e 54 166
e 54 168
e 54 170
e 55 56
e 55 60
e 55 159
e 56 57
e 56 59
e 56 61
e 56 63
e 56 69
e 56 93
e 56 95
e 56 97
e 56 99
e 56 146
e 56 158
e 56 160
e 56 166
e 56 168
e 56 173
e 56 175
e 56 177
e 56 190
e 56 192
e 56 193
e 56 195
e 56 196
e 56 198
e 57 58
e 57 60
e 57 159
e 58 59
e 58 97
e 58 99
e 58 101
e 58 150
e 58 156
e 58 158
e 58 177
e 58 179
e 58 195
e 58 198
e 58 199
e 58 201
e 59 60
e 59 159
e 60 61
e 60 63
e 60 65
e 60 67
e 60 69
e 60 71
e 60 73
e 60 75
e 60 77
e 60 79
e 60 81
e 60 83
e 60 85
e 60 87
e 60 89
e 60 91
e 60 93
e 60 95
e 60 97
e 60 99
e 60 101
e 60 201
e 61 62
e 61 68
e 61 94
e 61 100
e 62 63
e 62 65
e 62 67
e 62 121
e 62 123
e 62 127
e 62 129
e 62 149
e 62 163
e 62 171
e 62 173
e 62 180
e 62 196
e 63 64
e 63 94
e 63 100
e 64 65
e 64 99
e 64 123
e 64 125
e 64 129
e 64 131
e 64 163
e 64 171
e 64 187
e 64 196
e 64 198
e 64 199
e 64 201
e 65 66
e 65 100
e 65 202
e 66 67
e 66 73
e 66 75
e 66 127
e 66 129
e 66 141
e 66 143
e 66 145
e 66 147
e 66 149
e 66 163
e 66 165
e 66 167
e 66 171
e 66 180
e 67 68
e 67 72
e 67 100
e 68 69
e 68 71
e 68 119
e 68 121
e 68 127
e 68 149
e 68 151
e 68 153
e 68 173
e 68 175
e 68 180
e 68 188
e 69 70
e 69 94
e 69 100
e 70 71
e 70 89
e 70 93
e 70 107
e 70 109
e 70 119
e 70 151
e 70 153
e 70 155
e 70 168
e 70 170
e 70 175
e 70 188
e 71 72
e 71 88
e 71 100
e 72 73
e 72 85
e 72 127
e 72 139
e 72 141
e 72 147
e 72 149
e 72 151
e 72 153
e 72 157
e 72 165
e 72 178
e 72 180
e 72 188
e 73 74
e 73 84
e 73 100
e 74 75
e 74 83
e 74 135
e 74 141
e 74 143
e 74 145
e 74 147
e 74 165
e 74 167
e 74 176
e 74 191
e 75 76
e 75 100
e 75 202
e 76 77
e 76 83
e 76 133
e 76 135
e 76 143
e 76 145
e 76 161
e 76 167
e 76 169
e 76 176
e 76 191
e 77 78
e 77 100
e 77 200
e 77 202
e 78 79
e 78 83
e 78 113
e 78 133
e 78 135
e 78 161
e 78 169
e 78 174
e 78 176
e 78 189
e 78 191
e 79 80
e 79 100
e 79 102
e 79 200
e 80 81
e 80 83
e 80 111
e 80 113
e 80 135
e 80 172
e 80 174
e 80 176
e 80 183
e 80 189
e 80 191
e 81 82
e 81 90
e 81 100
e 81 102
e 82 83
e 82 87
e 82 111
e 82 135
e 82 137
e 82 172
e 82 176
e 82 183
e 82 191
e 82 194
e 82 197
e 83 84
e 83 86
e 83 100
e 84 85
e 84 135
e 84 139
e 84 141
e 84 147
e 84 157
e 84 165
e 84 176
e 84 178
e 84 191
e 85 86
e 85 88
e 85 100
e 86 87
e 86 135
e 86 137
e 86 139
e 86 157
e 86 176
e 86 178
e 86 191
e 86 194
e 86 197
e 87 88
e 87 90
e 87 100
e 88 89
e 88 109
e 88 137
e 88 139
e 88 151
e 88 153
e 88 155
e 88 157
e 88 170
e 88 178
e 88 188
e 88 194
e 88 197
e 89 90
e 89 92
e 89 100
e 90 91
e 90 103
e 90 109
e 90 111
e 90 137
e 90 155
e 90 164
e 90 170
e 90 172
e 90 181
e 90 183
e 90 194
e 90 197
e 91 92
e 91 96
e 91 100
e 91 102
e 92 93
e 92 95
e 92 103
e 92 105
e 92 107
e 92 109
e 92 155
e 92 164
e 92 166
e 92 168
e 92 170
e 92 181
e 93 94
e 93 100
e 94 95
e 94 97
e 94 99
e 94 105
e 94 107
e 94 117
e 94 119
e 94 121
e 94 123
e 94 125
e 94 166
e 94 168
e 94 173
e 94 175
e 94 177
e 94 196
e 94 198
e 95 96
e 95 100
e 96 97
e 96 101
e 96 103
e 96 105
e 96 115
e 96 117
e 96 164
e 96 166
e 96 177
e 96 179
e 96 181
e 96 185
e 97 98
e 97 100
e 98 99
e 98 101
e 98 115
e 98 117
e 98 125
e 98 131
e 98 177
e 98 179
e 98 185
e 98 187
e 98 198
e 98 199
e 98 201
e 99 100
e 100 101
e 100 103
e 100 105
e 100 107
e 100 109
e 100 111
e 100 113
e 100 115
e 100 117
e 100 119
e 100 121
e 100 123
e 100 125
e 100 127
e 100 129
e 100 131
e 100 133
e 100 135
e 100 137
e 100 139
e 100 141
e 100 143
e 100 153
e 100 201
e 101 102
e 101 200
e 102 103
e 102 111
e 102 113
e 102 115
e 102 164
e 102 172
e 102 174
e 102 179
e 102 181
e 102 183
e 102 185
e 102 189
e 103 104
e 103 106
e 103 110
e 103 114
e 103 126
e 104 105
e 104 115
e 104 117
e 104 159
e 104 181
e 104 185
e 105 106
e 105 118
e 105 126
e 106 107
e 106 109
e 106 155
e 106 159
e 106 181
e 107 108
e 107 118
e 107 126
e 108 109
e 108 119
e 108 151
e 108 153
e 108 155
e 108 159
e 109 110
e 109 126
e 109 154
e 110 111
e 110 137
e 110 155
e 110 159
e 110 181
e 110 183
e 110 194
e 111 112
e 111 114
e 111 126
e 111 136
e 112 113
e 112 135
e 112 159
e 112 183
e 112 189
e 112 191
e 113 114
e 113 126
e 113 132
e 113 134
e 113 200
e 114 115
e 114 159
e 114 181
e 114 183
e 114 185
e 114 189
e 115 116
e 115 126
e 115 132
e 115 200
e 116 117
e 116 125
e 116 131
e 116 159
e 116 185
e 116 187
e 117 118
e 117 126
e 118 119
e 118 121
e 118 123
e 118 125
e 118 159
e 119 120
e 119 126
e 120 121
e 120 127
e 120 149
e 120 151
e 120 153
e 120 159
e 121 122
e 121 126
e 122 123
e 122 127
e 122 129
e 122 149
e 122 159
e 122 163
e 123 124
e 123 126
e 124 125
e 124 129
e 124 131
e 124 159
e 124 163
e 124 187
e 125 126
e 126 127
e 126 129
e 126 131
e 126 133
e 126 135
e 126 137
e 126 139
e 126 141
e 126 143
e 126 153
e 126 159
e 127 128
e 127 152
e 128 129
e 128 141
e 128 143
e 128 145
e 128 147
e 128 149
e 128 159
e 128 163
e 129 130
e 129 202
e 130 131
e 130 133
e 130 143
e 130 145
e 130 159
e 130 161
e 130 163
e 130 187
e 131 132
e 131 200
e 131 202
e 132 133
e 132 159
e 132 161
e 132 185
e 132 187
e 132 189
e 133 134
e 133 144
e 133 200
e 133 202
e 134 135
e 134 159
e 134 161
e 134 189
e 134 191
e 135 136
e 135 138
e 135 140
e 135 142
e 135 144
e 136 137
e 136 159
e 136 183
e 136 191
e 136 194
e 137 138
e 137 154
e 138 139
e 138 157
e 138 159
e 138 191
e 138 194
e 139 140
e 139 152
e 139 154
e 140 141
e 140 147
e 140 157
e 140 159
e 140 191
e 141 142
e 141 152
e 142 143
e 142 145
e 142 147
e 142 159
e 142 191
e 143 144
e 143 202
e 144 145
e 144 159
e 144 161
e 144 191
e 145 146
e 145 148
e 145 160
e 145 162
e 145 164
e 145 166
e 145 168
e 145 170
e 145 202
e 146 147
e 146 159
e 146 191
e 147 148
e 147 150
e 147 152
e 147 158
e 147 164
e 147 166
e 147 177
e 147 179
e 148 149
e 148 159
e 148 163
e 149 150
e 149 152
e 149 164
e 149 172
e 149 174
e 149 179
e 150 151
e 150 157
e 150 159
e 151 152
e 151 154
e 151 156
e 151 169
e 151 174
e 151 179
e 151 199
e 152 153
e 152 157
e 152 159
e 153 154
e 154 155
e 154 157
e 154 159
e 154 194
e 155 156
e 155 167
e 155 169
e 155 171
e 155 182
e 155 199
e 156 157
e 156 159
e 156 194
e 157 158
e 157 177
e 157 179
e 157 195
e 157 198
e 157 199
e 158 159
e 158 191
e 159 160
e 159 162
e 159 182
e 159 184
e 159 186
e 159 190
e 159 192
e 159 193
e 159 195
e 160 161
e 160 191
e 161 162
e 161 168
e 161 170
e 161 175
e 161 186
e 161 188
e 161 192
e 161 200
e 161 202
e 162 163
e 162 187
e 163 164
e 163 170
e 163 172
e 163 197
e 163 202
e 164 165
e 164 167
e 164 171
e 164 180
e 165 166
e 165 177
e 165 179
e 165 181
e 165 185
e 166 167
e 166 176
e 166 191
e 167 168
e 167 170
e 167 181
e 167 202
e 168 169
e 168 176
e 168 191
e 169 170
e 169 175
e 169 188
e 169 200
e 169 202
e 170 171
e 170 187
e 170 199
e 171 172
e 171 181
e 171 183
e 171 194
e 171 197
e 171 202
e 172 173
e 172 180
e 172 196
e 173 174
e 173 176
e 173 183
e 173 189
e 173 191
e 174 175
e 174 180
e 174 188
e 174 200
e 175 176
e 175 189
e 175 191
e 176 177
e 176 196
e 176 198
e 177 178
e 177 191
e 178 179
e 178 185
e 178 187
e 178 198
e 178 199
e 179 180
e 179 188
e 179 200
e 180 181
e 180 183
e 180 185
e 180 189
e 181 182
e 181 184
e 182 183
e 182 194
e 183 184
e 183 190
e 183 193
e 183 196
e 184 185
e 184 189
e 185 186
e 185 188
e 185 200
e 186 187
e 186 189
e 187 188
e 187 197
e 187 200
e 187 202
e 188 189
e 188 199
e 189 190
e 189 192
e 189 200
e 190 191
e 191 192
e 191 193
e 191 195
e 191 196
e 191 198
e 193 194
e 194 195
e 194 196
e 194 198
e 194 199
e 196 197
e 197 198
e 197 199
e 199 200
e 199 202
e 200 201
e 201 202
